(set-logic QF_LIA)
(declare-fun x0 () Int)
(declare-fun x1 () Int)
(declare-fun x2 () Int)
(declare-fun x3 () Int)
(declare-fun x4 () Int)
(declare-fun x5 () Int)
(declare-fun x6 () Int)
(declare-fun x7 () Int)
(declare-fun x8 () Int)
(declare-fun x9 () Int)
(declare-fun A0 () Bool)
(declare-fun A1 () Bool)
(declare-fun A2 () Bool)
(declare-fun A3 () Bool)
(declare-fun A4 () Bool)
(declare-fun A5 () Bool)
(declare-fun A6 () Bool)
(declare-fun A7 () Bool)
(declare-fun A8 () Bool)
(declare-fun A9 () Bool)
(assert (let ((.def_0 (* 1 x9))) (let ((.def_1 (< .def_0 (- 1)))) (let ((.def_2 (not A1))) (let ((.def_3 (and .def_2 .def_1))) (let ((.def_4 (* (- 1) x9))) (let ((.def_5 (< .def_4 1))) (let ((.def_6 (not .def_5))) (let ((.def_7 (and .def_6 A3))) (let ((.def_8 (not .def_7))) (let ((.def_9 (or .def_8 .def_3))) (let ((.def_10 (* (- 1) x8))) (let ((.def_11 (* (- 1) x3))) (let ((.def_12 (+ .def_11 .def_10))) (let ((.def_13 (< .def_12 1))) (let ((.def_14 (not .def_13))) (let ((.def_15 (= .def_14 A3))) (let ((.def_16 (not .def_15))) (let ((.def_17 (* (- 1) x1))) (let ((.def_18 (* 1 x0))) (let ((.def_19 (+ .def_18 .def_17))) (let ((.def_20 (< .def_19 (- 1)))) (let ((.def_21 (* 1 x8))) (let ((.def_22 (* 1 x6))) (let ((.def_23 (+ .def_22 .def_21))) (let ((.def_24 (< .def_23 (- 1)))) (let ((.def_25 (= .def_24 .def_20))) (let ((.def_26 (or .def_25 .def_16))) (let ((.def_27 (and .def_26 .def_9))) (let ((.def_28 (not A7))) (let ((.def_29 (* (- 1) x7))) (let ((.def_30 (* 1 x2))) (let ((.def_31 (+ .def_30 .def_29))) (let ((.def_32 (< .def_31 (- 1)))) (let ((.def_33 (not .def_32))) (let ((.def_34 (or .def_33 .def_28))) (let ((.def_35 (* 1 x3))) (let ((.def_36 (+ .def_35 .def_0))) (let ((.def_37 (< .def_36 (- 1)))) (let ((.def_38 (< .def_29 1))) (let ((.def_39 (not .def_38))) (let ((.def_40 (= .def_39 .def_37))) (let ((.def_41 (not .def_40))) (let ((.def_42 (or .def_41 .def_34))) (let ((.def_43 (< .def_21 (- 1)))) (let ((.def_44 (not .def_43))) (let ((.def_45 (or A5 .def_44))) (let ((.def_46 (not .def_45))) (let ((.def_47 (* (- 1) x6))) (let ((.def_48 (< .def_47 (- 1)))) (let ((.def_49 (not A2))) (let ((.def_50 (and .def_49 .def_48))) (let ((.def_51 (and .def_50 .def_46))) (let ((.def_52 (not .def_51))) (let ((.def_53 (and .def_52 .def_42))) (let ((.def_54 (and .def_53 .def_27))) (let ((.def_55 (* 1 x7))) (let ((.def_56 (+ .def_55 .def_10))) (let ((.def_57 (< .def_56 1))) (let ((.def_58 (not .def_57))) (let ((.def_59 (and .def_58 .def_43))) (let ((.def_60 (not .def_59))) (let ((.def_61 (< .def_47 1))) (let ((.def_62 (and A0 .def_61))) (let ((.def_63 (not .def_62))) (let ((.def_64 (and .def_63 .def_60))) (let ((.def_65 (not .def_64))) (let ((.def_66 (+ .def_47 .def_10))) (let ((.def_67 (< .def_66 1))) (let ((.def_68 (not A9))) (let ((.def_69 (or .def_68 .def_67))) (let ((.def_70 (not .def_69))) (let ((.def_71 (* 1 x1))) (let ((.def_72 (+ .def_71 .def_10))) (let ((.def_73 (< .def_72 1))) (let ((.def_74 (not .def_73))) (let ((.def_75 (* 1 x5))) (let ((.def_76 (+ .def_0 .def_75))) (let ((.def_77 (< .def_76 (- 1)))) (let ((.def_78 (and .def_77 .def_74))) (let ((.def_79 (or .def_78 .def_70))) (let ((.def_80 (not .def_79))) (let ((.def_81 (or .def_80 .def_65))) (let ((.def_82 (* (- 1) x4))) (let ((.def_83 (* (- 1) x2))) (let ((.def_84 (+ .def_83 .def_82))) (let ((.def_85 (< .def_84 1))) (let ((.def_86 (not .def_85))) (let ((.def_87 (and .def_86 A7))) (let ((.def_88 (+ .def_0 .def_30))) (let ((.def_89 (< .def_88 1))) (let ((.def_90 (and .def_89 A7))) (let ((.def_91 (not .def_90))) (let ((.def_92 (= .def_91 .def_87))) (let ((.def_93 (or A8 A5))) (let ((.def_94 (< .def_22 1))) (let ((.def_95 (not .def_94))) (let ((.def_96 (or .def_95 A8))) (let ((.def_97 (not .def_96))) (let ((.def_98 (and .def_97 .def_93))) (let ((.def_99 (not .def_98))) (let ((.def_100 (and .def_99 .def_92))) (let ((.def_101 (not .def_100))) (let ((.def_102 (or .def_101 .def_81))) (let ((.def_103 (or .def_102 .def_54))) (let ((.def_104 (and .def_28 .def_6))) (let ((.def_105 (not .def_104))) (let ((.def_106 (not A3))) (let ((.def_107 (and A5 .def_106))) (let ((.def_108 (and .def_107 .def_105))) (let ((.def_109 (* 1 x4))) (let ((.def_110 (+ .def_109 .def_29))) (let ((.def_111 (< .def_110 (- 1)))) (let ((.def_112 (< .def_30 1))) (let ((.def_113 (and .def_112 .def_111))) (let ((.def_114 (not .def_113))) (let ((.def_115 (+ .def_75 .def_109))) (let ((.def_116 (< .def_115 (- 1)))) (let ((.def_117 (+ .def_29 .def_22))) (let ((.def_118 (< .def_117 1))) (let ((.def_119 (or .def_118 .def_116))) (let ((.def_120 (and .def_119 .def_114))) (let ((.def_121 (not .def_120))) (let ((.def_122 (or .def_121 .def_108))) (let ((.def_123 (not .def_122))) (let ((.def_124 (< .def_82 (- 1)))) (let ((.def_125 (not .def_124))) (let ((.def_126 (not A5))) (let ((.def_127 (or .def_126 .def_125))) (let ((.def_128 (< .def_83 (- 1)))) (let ((.def_129 (not .def_128))) (let ((.def_130 (and .def_129 A0))) (let ((.def_131 (and .def_130 .def_127))) (let ((.def_132 (+ .def_71 .def_18))) (let ((.def_133 (< .def_132 1))) (let ((.def_134 (not .def_133))) (let ((.def_135 (and .def_134 .def_6))) (let ((.def_136 (not .def_135))) (let ((.def_137 (+ .def_11 .def_71))) (let ((.def_138 (< .def_137 1))) (let ((.def_139 (not .def_138))) (let ((.def_140 (and A8 .def_139))) (let ((.def_141 (and .def_140 .def_136))) (let ((.def_142 (not .def_141))) (let ((.def_143 (and .def_142 .def_131))) (let ((.def_144 (not .def_143))) (let ((.def_145 (or .def_144 .def_123))) (let ((.def_146 (not .def_145))) (let ((.def_147 (and .def_112 A4))) (let ((.def_148 (not A6))) (let ((.def_149 (or .def_148 .def_68))) (let ((.def_150 (or .def_149 .def_147))) (let ((.def_151 (< .def_109 (- 1)))) (let ((.def_152 (and .def_68 .def_151))) (let ((.def_153 (* (- 1) x5))) (let ((.def_154 (< .def_153 (- 1)))) (let ((.def_155 (not .def_154))) (let ((.def_156 (and A6 .def_155))) (let ((.def_157 (or .def_156 .def_152))) (let ((.def_158 (or .def_157 .def_150))) (let ((.def_159 (not A0))) (let ((.def_160 (or .def_159 A7))) (let ((.def_161 (+ .def_4 .def_10))) (let ((.def_162 (< .def_161 1))) (let ((.def_163 (not .def_162))) (let ((.def_164 (and .def_163 .def_28))) (let ((.def_165 (or .def_164 .def_160))) (let ((.def_166 (not .def_165))) (let ((.def_167 (* (- 1) x0))) (let ((.def_168 (< .def_167 1))) (let ((.def_169 (or A5 .def_168))) (let ((.def_170 (not .def_169))) (let ((.def_171 (+ .def_18 .def_21))) (let ((.def_172 (< .def_171 (- 1)))) (let ((.def_173 (or .def_2 .def_172))) (let ((.def_174 (not .def_173))) (let ((.def_175 (and .def_174 .def_170))) (let ((.def_176 (and .def_175 .def_166))) (let ((.def_177 (and .def_176 .def_158))) (let ((.def_178 (or .def_177 .def_146))) (let ((.def_179 (not .def_178))) (let ((.def_180 (or .def_179 .def_103))) (let ((.def_181 (not .def_180))) (let ((.def_182 (+ .def_21 .def_4))) (let ((.def_183 (< .def_182 1))) (let ((.def_184 (and .def_49 .def_183))) (let ((.def_185 (not .def_184))) (let ((.def_186 (not A4))) (let ((.def_187 (or .def_44 .def_186))) (let ((.def_188 (= .def_187 .def_185))) (let ((.def_189 (not .def_188))) (let ((.def_190 (+ .def_18 .def_10))) (let ((.def_191 (< .def_190 1))) (let ((.def_192 (not .def_191))) (let ((.def_193 (or .def_192 .def_28))) (let ((.def_194 (not A8))) (let ((.def_195 (= .def_194 .def_49))) (let ((.def_196 (and .def_195 .def_193))) (let ((.def_197 (not .def_196))) (let ((.def_198 (and .def_197 .def_189))) (let ((.def_199 (not .def_198))) (let ((.def_200 (< .def_17 1))) (let ((.def_201 (= A7 .def_200))) (let ((.def_202 (not .def_200))) (let ((.def_203 (and .def_49 .def_202))) (let ((.def_204 (or .def_203 .def_201))) (let ((.def_205 (not .def_204))) (let ((.def_206 (and .def_38 A6))) (let ((.def_207 (+ .def_35 .def_83))) (let ((.def_208 (< .def_207 (- 1)))) (let ((.def_209 (or .def_208 A5))) (let ((.def_210 (not .def_209))) (let ((.def_211 (or .def_210 .def_206))) (let ((.def_212 (not .def_211))) (let ((.def_213 (and .def_212 .def_205))) (let ((.def_214 (not .def_213))) (let ((.def_215 (and .def_214 .def_199))) (let ((.def_216 (= .def_202 A1))) (let ((.def_217 (not .def_216))) (let ((.def_218 (< .def_29 (- 1)))) (let ((.def_219 (and A2 .def_218))) (let ((.def_220 (and .def_219 .def_217))) (let ((.def_221 (< .def_17 (- 1)))) (let ((.def_222 (and .def_49 .def_221))) (let ((.def_223 (not .def_222))) (let ((.def_224 (+ .def_22 .def_82))) (let ((.def_225 (< .def_224 (- 1)))) (let ((.def_226 (and .def_225 .def_49))) (let ((.def_227 (not .def_226))) (let ((.def_228 (= .def_227 .def_223))) (let ((.def_229 (and .def_228 .def_220))) (let ((.def_230 (not .def_229))) (let ((.def_231 (+ .def_75 .def_10))) (let ((.def_232 (< .def_231 (- 1)))) (let ((.def_233 (not .def_232))) (let ((.def_234 (or A8 .def_233))) (let ((.def_235 (+ .def_71 .def_167))) (let ((.def_236 (< .def_235 1))) (let ((.def_237 (not .def_236))) (let ((.def_238 (and .def_237 A0))) (let ((.def_239 (or .def_238 .def_234))) (let ((.def_240 (not .def_239))) (let ((.def_241 (< .def_55 (- 1)))) (let ((.def_242 (and .def_112 .def_241))) (let ((.def_243 (not .def_242))) (let ((.def_244 (or .def_106 .def_218))) (let ((.def_245 (not .def_244))) (let ((.def_246 (and .def_245 .def_243))) (let ((.def_247 (or .def_246 .def_240))) (let ((.def_248 (not .def_247))) (let ((.def_249 (or .def_248 .def_230))) (let ((.def_250 (not .def_249))) (let ((.def_251 (or .def_250 .def_215))) (let ((.def_252 (+ .def_29 .def_109))) (let ((.def_253 (< .def_252 1))) (let ((.def_254 (+ .def_55 .def_83))) (let ((.def_255 (< .def_254 (- 1)))) (let ((.def_256 (not .def_255))) (let ((.def_257 (or .def_256 .def_253))) (let ((.def_258 (< .def_153 1))) (let ((.def_259 (= .def_6 .def_258))) (let ((.def_260 (not .def_259))) (let ((.def_261 (and .def_260 .def_257))) (let ((.def_262 (not .def_261))) (let ((.def_263 (or A3 A9))) (let ((.def_264 (not .def_263))) (let ((.def_265 (< .def_71 1))) (let ((.def_266 (not .def_265))) (let ((.def_267 (and A1 .def_266))) (let ((.def_268 (not .def_267))) (let ((.def_269 (or .def_268 .def_264))) (let ((.def_270 (not .def_269))) (let ((.def_271 (or .def_270 .def_262))) (let ((.def_272 (not .def_271))) (let ((.def_273 (< .def_4 (- 1)))) (let ((.def_274 (not .def_273))) (let ((.def_275 (and .def_274 .def_202))) (let ((.def_276 (+ .def_109 .def_10))) (let ((.def_277 (< .def_276 (- 1)))) (let ((.def_278 (not .def_277))) (let ((.def_279 (and A0 .def_278))) (let ((.def_280 (or .def_279 .def_275))) (let ((.def_281 (not .def_280))) (let ((.def_282 (not .def_221))) (let ((.def_283 (= .def_28 .def_282))) (let ((.def_284 (not .def_283))) (let ((.def_285 (< .def_55 1))) (let ((.def_286 (+ .def_4 .def_21))) (let ((.def_287 (< .def_286 (- 1)))) (let ((.def_288 (or .def_287 .def_285))) (let ((.def_289 (and .def_288 .def_284))) (let ((.def_290 (not .def_289))) (let ((.def_291 (or .def_290 .def_281))) (let ((.def_292 (not .def_291))) (let ((.def_293 (or .def_292 .def_272))) (let ((.def_294 (+ .def_10 .def_11))) (let ((.def_295 (< .def_294 1))) (let ((.def_296 (and .def_295 A4))) (let ((.def_297 (+ .def_4 .def_167))) (let ((.def_298 (< .def_297 (- 1)))) (let ((.def_299 (and .def_298 A9))) (let ((.def_300 (not .def_299))) (let ((.def_301 (and .def_300 .def_296))) (let ((.def_302 (< .def_10 (- 1)))) (let ((.def_303 (or .def_302 .def_202))) (let ((.def_304 (not .def_303))) (let ((.def_305 (not .def_218))) (let ((.def_306 (and .def_126 .def_305))) (let ((.def_307 (not .def_306))) (let ((.def_308 (= .def_307 .def_304))) (let ((.def_309 (and .def_308 .def_301))) (let ((.def_310 (not .def_309))) (let ((.def_311 (< .def_11 1))) (let ((.def_312 (and .def_168 .def_311))) (let ((.def_313 (and .def_49 .def_154))) (let ((.def_314 (or .def_313 .def_312))) (let ((.def_315 (not .def_314))) (let ((.def_316 (+ .def_35 .def_71))) (let ((.def_317 (< .def_316 1))) (let ((.def_318 (not .def_317))) (let ((.def_319 (+ .def_83 .def_153))) (let ((.def_320 (< .def_319 1))) (let ((.def_321 (or .def_320 .def_318))) (let ((.def_322 (and A1 A8))) (let ((.def_323 (and .def_322 .def_321))) (let ((.def_324 (not .def_323))) (let ((.def_325 (and .def_324 .def_315))) (let ((.def_326 (and .def_325 .def_310))) (let ((.def_327 (not .def_326))) (let ((.def_328 (and .def_327 .def_293))) (let ((.def_329 (and .def_328 .def_251))) (let ((.def_330 (not .def_329))) (let ((.def_331 (or .def_330 .def_181))) (let ((.def_332 (<= x9 1))) (let ((.def_333 (<= 0 x9))) (let ((.def_334 (<= x8 1))) (let ((.def_335 (<= 0 x8))) (let ((.def_336 (<= x7 1))) (let ((.def_337 (<= 0 x7))) (let ((.def_338 (<= x6 1))) (let ((.def_339 (<= 0 x6))) (let ((.def_340 (<= x5 1))) (let ((.def_341 (<= 0 x5))) (let ((.def_342 (<= x4 1))) (let ((.def_343 (<= 0 x4))) (let ((.def_344 (<= x3 1))) (let ((.def_345 (<= 0 x3))) (let ((.def_346 (<= x2 1))) (let ((.def_347 (<= 0 x2))) (let ((.def_348 (<= x1 1))) (let ((.def_349 (<= 0 x1))) (let ((.def_350 (<= x0 1))) (let ((.def_351 (<= 0 x0))) (let ((.def_352 (and .def_351 .def_350 .def_349 .def_348 .def_347 .def_346 .def_345 .def_344 .def_343 .def_342 .def_341 .def_340 .def_339 .def_338 .def_337 .def_336 .def_335 .def_334 .def_333 .def_332 .def_331))) .def_352))))))))))))))))))))))))))))))))))))))))))))))))))))))))))))))))))))))))))))))))))))))))))))))))))))))))))))))))))))))))))))))))))))))))))))))))))))))))))))))))))))))))))))))))))))))))))))))))))))))))))))))))))))))))))))))))))))))))))))))))))))))))))))))))))))))))))))))))))))))))))))))))))))))))))))))))))))))))))))))))))))))))))))))))))))))))))))))))))
(check-sat)
